************************************************************************
file with basedata            : mm55_.bas
initial value random generator: 99960709
************************************************************************
projects                      :  1
jobs (incl. supersource/sink ):  12
horizon                       :  74
RESOURCES
  - renewable                 :  2   R
  - nonrenewable              :  2   N
  - doubly constrained        :  0   D
************************************************************************
PROJECT INFORMATION:
pronr.  #jobs rel.date duedate tardcost  MPM-Time
    1     10      0       13        7       13
************************************************************************
PRECEDENCE RELATIONS:
jobnr.    #modes  #successors   successors
   0        1          3           1   2   3
   1        3          2           8  10
   2        3          2           4   5
   3        3          2           5   6
   4        3          3           6   9  10
   5        3          1           9
   6        3          1           7
   7        3          1           8
   8        3          1          11
   9        3          1          11
  10        3          1          11
  11        1          0        
************************************************************************
REQUESTS/DURATIONS:
jobnr. mode duration  R 1  R 2  R 3  R 4  E(W 1)  E(W 2)  E(W 3)
------------------------------------------------------------------------
  0      1     0       0    0    0    0     0       0       0
  1      1     4       4    7    8    6    44      32      24
  2      1     2       4    6    5    9    20      10      18
  3      1     2       8    6    8    5    28      16      10
  4      1     1      10    5    7    6    15       7       6
  5      1     3       9    4    4    6    39      12      18
  6      1     1       8    7    2    4    15       2       4
  7      1     4       7    5    6    9    48      24      36
  8      1     5       6    6    4    8    60      20      40
  9      1     2       8    6    8    9    28      16      18
 10      1     4       3   10   10    4    52      40      16
 11      1     0       0    0    0    0     0       0       0
************************************************************************
RESOURCEAVAILABILITIES:
  R 1  R 2  R 3
   36   54   59
************************************************************************
RESOURCE LIMITS:
jobnr.  l(R 1)  u(R 1)  l(R 2)  u(R 2)  l(R 3)  u(R 3)
------------------------------------------------------------------------
  0        0       0       0       0       0       0
  1        6      11       4       8       3       6
  2        5      10       3       5       5       9
  3        7      14       4       8       3       5
  4        8      15       4       7       3       6
  5        7      13       2       4       3       6
  6        8      15       1       2       2       4
  7        7      12       3       6       5       9
  8        6      12       2       4       4       8
  9        7      14       4       8       5       9
 10        7      13       5      10       2       4
 11        0       0       0       0       0       0
************************************************************************
SCENARIOS:
------------------------------------------------------------------------
RESOURCE k = 1
s = 1: (0, 46, 27, 30, 15, 28, 10, 48, 84, 32, 45, 0)
s = 2: (0, 24, 33, 21, 10, 42, 15, 46, 53, 32, 35, 0)
s = 3: (0, 42, 20, 28, 12, 38, 12, 29, 88, 30, 59, 0)
s = 4: (0, 38, 24, 42, 18, 57, 20, 39, 81, 23, 50, 0)
s = 5: (0, 35, 19, 18, 12, 45, 14, 57, 61, 20, 35, 0)
s = 6: (0, 43, 18, 29, 10, 48, 9, 41, 57, 28, 52, 0)
s = 7: (0, 62, 15, 35, 11, 32, 14, 77, 46, 47, 28, 0)
s = 8: (0, 25, 11, 23, 19, 24, 20, 49, 86, 22, 36, 0)
s = 9: (0, 30, 16, 21, 23, 38, 17, 44, 65, 22, 30, 0)
s = 10: (0, 33, 13, 33, 17, 25, 16, 33, 58, 17, 68, 0)
s = 11: (0, 40, 25, 37, 21, 67, 18, 30, 86, 19, 77, 0)
s = 12: (0, 69, 13, 16, 13, 51, 16, 75, 36, 36, 63, 0)
s = 13: (0, 26, 16, 28, 18, 40, 14, 39, 66, 27, 30, 0)
s = 14: (0, 48, 14, 28, 19, 35, 15, 36, 61, 20, 41, 0)
s = 15: (0, 71, 17, 37, 15, 50, 17, 43, 71, 26, 52, 0)
s = 16: (0, 30, 16, 38, 15, 25, 19, 44, 77, 31, 63, 0)
s = 17: (0, 57, 15, 26, 8, 53, 15, 55, 42, 38, 30, 0)
s = 18: (0, 53, 15, 30, 15, 28, 15, 62, 69, 30, 55, 0)
s = 19: (0, 52, 22, 20, 22, 31, 14, 53, 36, 18, 46, 0)
s = 20: (0, 51, 16, 32, 11, 51, 18, 41, 58, 35, 51, 0)
s = 21: (0, 54, 18, 19, 11, 27, 12, 32, 108, 21, 58, 0)
s = 22: (0, 72, 22, 32, 16, 27, 18, 27, 49, 34, 63, 0)
s = 23: (0, 38, 15, 33, 14, 28, 13, 36, 34, 43, 35, 0)
s = 24: (0, 77, 14, 28, 11, 36, 17, 72, 55, 15, 57, 0)
s = 25: (0, 42, 17, 29, 13, 46, 10, 72, 77, 32, 73, 0)
s = 26: (0, 55, 27, 32, 20, 35, 12, 27, 57, 26, 42, 0)
s = 27: (0, 44, 23, 22, 16, 38, 10, 38, 52, 19, 31, 0)
s = 28: (0, 27, 23, 28, 21, 26, 13, 40, 71, 30, 40, 0)
s = 29: (0, 42, 28, 31, 15, 39, 16, 52, 42, 15, 56, 0)
s = 30: (0, 61, 22, 22, 22, 30, 27, 49, 55, 29, 64, 0)
s = 31: (0, 52, 34, 23, 29, 27, 19, 70, 95, 41, 41, 0)
s = 32: (0, 65, 17, 22, 12, 53, 22, 67, 77, 37, 68, 0)
s = 33: (0, 28, 14, 30, 11, 52, 16, 40, 64, 33, 33, 0)
s = 34: (0, 43, 36, 43, 10, 31, 17, 45, 60, 21, 57, 0)
s = 35: (0, 58, 24, 23, 15, 29, 11, 36, 51, 18, 53, 0)
s = 36: (0, 33, 12, 28, 19, 68, 14, 48, 49, 20, 35, 0)
s = 37: (0, 48, 30, 41, 20, 39, 16, 31, 48, 29, 61, 0)
s = 38: (0, 39, 23, 18, 14, 25, 18, 34, 50, 20, 59, 0)
s = 39: (0, 35, 14, 23, 22, 26, 9, 63, 66, 23, 44, 0)
s = 40: (0, 42, 16, 25, 26, 28, 19, 28, 59, 36, 52, 0)
s = 41: (0, 34, 15, 23, 16, 39, 21, 44, 52, 25, 56, 0)
s = 42: (0, 40, 17, 37, 11, 40, 12, 65, 66, 19, 36, 0)
s = 43: (0, 65, 29, 16, 12, 42, 15, 42, 52, 21, 36, 0)
s = 44: (0, 42, 16, 30, 25, 48, 21, 32, 42, 22, 63, 0)
s = 45: (0, 33, 21, 19, 16, 42, 14, 38, 36, 20, 37, 0)
s = 46: (0, 37, 12, 18, 23, 48, 11, 36, 82, 27, 58, 0)
s = 47: (0, 42, 17, 23, 18, 37, 12, 48, 65, 27, 45, 0)
s = 48: (0, 57, 14, 25, 20, 49, 13, 57, 55, 22, 60, 0)
s = 49: (0, 31, 16, 43, 24, 29, 13, 40, 58, 26, 49, 0)
s = 50: (0, 51, 18, 28, 22, 61, 13, 61, 37, 20, 49, 0)
s = 51: (0, 32, 21, 29, 15, 47, 14, 80, 49, 29, 33, 0)
s = 52: (0, 68, 26, 34, 15, 46, 8, 76, 44, 36, 48, 0)
s = 53: (0, 38, 19, 41, 24, 41, 20, 66, 75, 21, 75, 0)
s = 54: (0, 58, 14, 21, 11, 36, 22, 42, 57, 32, 40, 0)
s = 55: (0, 36, 31, 31, 16, 29, 17, 28, 54, 19, 52, 0)
s = 56: (0, 43, 15, 21, 23, 23, 15, 67, 70, 27, 38, 0)
s = 57: (0, 38, 22, 29, 14, 51, 20, 63, 41, 35, 46, 0)
s = 58: (0, 37, 22, 38, 12, 51, 17, 68, 76, 21, 52, 0)
s = 59: (0, 47, 24, 33, 15, 47, 17, 67, 56, 28, 64, 0)
s = 60: (0, 37, 16, 52, 12, 36, 20, 38, 51, 23, 39, 0)
s = 61: (0, 39, 21, 28, 10, 25, 22, 75, 51, 22, 60, 0)
s = 62: (0, 64, 22, 30, 19, 32, 16, 38, 55, 26, 52, 0)
s = 63: (0, 76, 21, 18, 13, 39, 14, 42, 45, 19, 31, 0)
s = 64: (0, 60, 16, 32, 13, 45, 18, 29, 79, 19, 43, 0)
s = 65: (0, 45, 15, 30, 15, 25, 9, 49, 53, 20, 32, 0)
s = 66: (0, 30, 11, 32, 13, 36, 16, 63, 50, 23, 57, 0)
s = 67: (0, 36, 17, 30, 19, 47, 18, 37, 57, 29, 68, 0)
s = 68: (0, 50, 23, 33, 19, 64, 14, 59, 77, 26, 31, 0)
s = 69: (0, 29, 29, 22, 12, 38, 14, 60, 72, 44, 50, 0)
s = 70: (0, 32, 20, 25, 18, 26, 9, 85, 49, 42, 39, 0)
s = 71: (0, 56, 21, 38, 11, 56, 19, 56, 50, 43, 39, 0)
s = 72: (0, 32, 20, 38, 15, 27, 14, 75, 51, 27, 55, 0)
s = 73: (0, 54, 29, 30, 17, 70, 23, 40, 57, 26, 41, 0)
s = 74: (0, 50, 22, 24, 18, 46, 9, 36, 94, 27, 43, 0)
s = 75: (0, 32, 22, 26, 11, 56, 15, 27, 70, 29, 39, 0)
s = 76: (0, 62, 18, 26, 25, 29, 14, 25, 43, 30, 37, 0)
s = 77: (0, 50, 24, 20, 20, 37, 17, 52, 41, 23, 65, 0)
s = 78: (0, 46, 23, 18, 16, 40, 13, 40, 55, 32, 52, 0)
s = 79: (0, 46, 18, 30, 15, 37, 21, 49, 95, 33, 69, 0)
s = 80: (0, 68, 23, 19, 22, 52, 24, 75, 43, 18, 54, 0)
s = 81: (0, 49, 18, 26, 12, 49, 20, 43, 71, 46, 44, 0)
s = 82: (0, 61, 19, 39, 19, 28, 16, 44, 67, 21, 52, 0)
s = 83: (0, 24, 31, 26, 13, 49, 18, 60, 95, 35, 41, 0)
s = 84: (0, 35, 23, 30, 18, 51, 12, 56, 62, 27, 53, 0)
s = 85: (0, 54, 26, 25, 17, 36, 19, 43, 36, 30, 67, 0)
s = 86: (0, 54, 19, 25, 9, 44, 21, 51, 61, 39, 41, 0)
s = 87: (0, 37, 23, 27, 14, 38, 16, 47, 75, 24, 68, 0)
s = 88: (0, 28, 12, 31, 16, 39, 13, 42, 41, 51, 45, 0)
s = 89: (0, 44, 13, 27, 17, 29, 15, 60, 67, 25, 33, 0)
s = 90: (0, 42, 24, 25, 14, 40, 19, 85, 97, 26, 68, 0)
s = 91: (0, 32, 14, 24, 11, 36, 14, 30, 37, 30, 50, 0)
s = 92: (0, 38, 21, 22, 21, 48, 11, 32, 63, 31, 52, 0)
s = 93: (0, 38, 14, 39, 13, 41, 14, 43, 80, 17, 49, 0)
s = 94: (0, 26, 37, 39, 9, 48, 16, 39, 102, 21, 51, 0)
s = 95: (0, 42, 22, 27, 15, 43, 9, 66, 94, 44, 36, 0)
s = 96: (0, 36, 27, 26, 14, 27, 13, 45, 65, 28, 67, 0)
s = 97: (0, 50, 11, 30, 24, 35, 19, 31, 47, 31, 48, 0)
s = 98: (0, 38, 24, 20, 15, 37, 17, 67, 79, 33, 31, 0)
s = 99: (0, 38, 13, 16, 19, 53, 10, 48, 66, 27, 36, 0)
s = 100: (0, 37, 19, 32, 13, 48, 9, 71, 61, 26, 33, 0)
s = 101: (0, 55, 16, 38, 17, 37, 21, 37, 47, 40, 73, 0)
s = 102: (0, 39, 16, 26, 20, 50, 22, 76, 42, 21, 52, 0)
s = 103: (0, 35, 15, 33, 16, 33, 15, 54, 42, 24, 30, 0)
s = 104: (0, 42, 23, 27, 19, 24, 17, 73, 78, 19, 38, 0)
s = 105: (0, 38, 14, 15, 18, 37, 21, 37, 57, 22, 80, 0)
s = 106: (0, 42, 23, 35, 10, 71, 12, 53, 56, 32, 65, 0)
s = 107: (0, 29, 13, 34, 17, 29, 17, 38, 80, 19, 39, 0)
s = 108: (0, 43, 15, 18, 12, 58, 12, 54, 100, 25, 36, 0)
s = 109: (0, 54, 16, 20, 14, 39, 14, 36, 83, 28, 48, 0)
s = 110: (0, 43, 22, 21, 11, 41, 11, 38, 36, 40, 51, 0)
s = 111: (0, 35, 22, 36, 15, 21, 24, 43, 58, 35, 42, 0)
s = 112: (0, 46, 23, 36, 9, 25, 16, 35, 73, 23, 32, 0)
s = 113: (0, 42, 28, 21, 12, 36, 23, 66, 57, 24, 68, 0)
s = 114: (0, 32, 28, 33, 15, 37, 13, 63, 56, 22, 42, 0)
s = 115: (0, 41, 25, 19, 16, 49, 18, 39, 45, 23, 41, 0)
s = 116: (0, 37, 18, 28, 9, 27, 21, 50, 75, 21, 30, 0)
s = 117: (0, 37, 21, 38, 12, 39, 10, 47, 58, 27, 70, 0)
s = 118: (0, 31, 23, 18, 16, 38, 15, 64, 85, 29, 68, 0)
s = 119: (0, 45, 20, 22, 26, 29, 20, 78, 56, 18, 46, 0)
s = 120: (0, 58, 17, 31, 12, 55, 12, 34, 50, 30, 35, 0)
s = 121: (0, 41, 17, 44, 13, 42, 19, 32, 55, 35, 34, 0)
s = 122: (0, 64, 14, 28, 17, 27, 16, 53, 106, 49, 35, 0)
s = 123: (0, 51, 13, 36, 22, 45, 13, 60, 43, 22, 80, 0)
s = 124: (0, 36, 18, 28, 20, 64, 11, 53, 55, 26, 52, 0)
s = 125: (0, 36, 27, 44, 8, 38, 16, 56, 42, 30, 98, 0)
s = 126: (0, 46, 18, 18, 16, 34, 16, 44, 72, 28, 33, 0)
s = 127: (0, 58, 20, 40, 16, 39, 18, 61, 62, 19, 45, 0)
s = 128: (0, 43, 26, 24, 11, 25, 11, 37, 58, 24, 60, 0)
s = 129: (0, 62, 11, 23, 13, 31, 22, 44, 55, 23, 50, 0)
s = 130: (0, 45, 21, 39, 10, 34, 16, 58, 68, 36, 49, 0)
s = 131: (0, 37, 22, 37, 14, 39, 16, 57, 78, 22, 53, 0)
s = 132: (0, 32, 24, 34, 10, 25, 20, 67, 36, 21, 50, 0)
s = 133: (0, 43, 15, 19, 11, 51, 17, 35, 53, 22, 71, 0)
s = 134: (0, 36, 15, 37, 19, 34, 16, 51, 38, 18, 96, 0)
s = 135: (0, 75, 17, 23, 9, 28, 14, 42, 85, 31, 35, 0)
s = 136: (0, 37, 21, 29, 11, 38, 17, 69, 69, 28, 51, 0)
s = 137: (0, 39, 22, 19, 15, 36, 20, 49, 54, 29, 49, 0)
s = 138: (0, 56, 19, 33, 14, 34, 13, 41, 41, 18, 50, 0)
s = 139: (0, 47, 13, 20, 20, 32, 11, 33, 67, 24, 50, 0)
s = 140: (0, 55, 18, 22, 16, 51, 10, 49, 45, 23, 43, 0)
s = 141: (0, 49, 13, 38, 20, 36, 13, 46, 88, 26, 47, 0)
s = 142: (0, 41, 20, 27, 9, 34, 18, 75, 73, 23, 55, 0)
s = 143: (0, 69, 12, 25, 16, 49, 20, 73, 60, 21, 64, 0)
s = 144: (0, 54, 13, 33, 14, 54, 16, 31, 74, 40, 36, 0)
s = 145: (0, 57, 30, 24, 19, 28, 13, 47, 45, 42, 35, 0)
s = 146: (0, 25, 25, 27, 11, 31, 21, 47, 61, 29, 37, 0)
s = 147: (0, 40, 23, 32, 15, 38, 19, 34, 36, 26, 34, 0)
s = 148: (0, 45, 15, 31, 21, 28, 23, 67, 52, 47, 44, 0)
s = 149: (0, 61, 18, 34, 16, 63, 14, 64, 57, 30, 61, 0)
s = 150: (0, 36, 30, 33, 11, 29, 17, 54, 62, 30, 47, 0)
s = 151: (0, 50, 15, 29, 12, 32, 10, 60, 85, 19, 32, 0)
s = 152: (0, 32, 28, 30, 11, 35, 15, 52, 87, 22, 48, 0)
s = 153: (0, 34, 31, 31, 12, 25, 12, 48, 70, 21, 36, 0)
s = 154: (0, 45, 30, 20, 12, 39, 19, 33, 52, 42, 49, 0)
s = 155: (0, 26, 20, 21, 21, 38, 14, 64, 44, 24, 93, 0)
s = 156: (0, 47, 24, 37, 21, 43, 20, 37, 35, 23, 52, 0)
s = 157: (0, 54, 20, 42, 13, 46, 11, 60, 57, 21, 41, 0)
s = 158: (0, 42, 21, 19, 23, 39, 20, 29, 47, 19, 48, 0)
s = 159: (0, 55, 16, 24, 26, 35, 12, 50, 48, 31, 62, 0)
s = 160: (0, 35, 25, 22, 12, 48, 15, 29, 56, 26, 56, 0)
s = 161: (0, 33, 27, 23, 13, 32, 16, 44, 73, 34, 58, 0)
s = 162: (0, 39, 28, 26, 18, 45, 16, 43, 45, 33, 42, 0)
s = 163: (0, 49, 33, 23, 19, 35, 29, 79, 79, 24, 36, 0)
s = 164: (0, 45, 22, 25, 18, 53, 9, 55, 81, 17, 55, 0)
s = 165: (0, 42, 27, 18, 10, 34, 18, 59, 69, 37, 38, 0)
s = 166: (0, 27, 18, 39, 12, 37, 21, 35, 64, 34, 49, 0)
s = 167: (0, 62, 18, 21, 14, 35, 17, 37, 63, 23, 67, 0)
s = 168: (0, 34, 24, 16, 10, 38, 12, 56, 43, 23, 69, 0)
s = 169: (0, 57, 25, 37, 9, 27, 14, 69, 49, 17, 54, 0)
s = 170: (0, 36, 14, 18, 13, 33, 16, 83, 90, 44, 36, 0)
s = 171: (0, 43, 34, 30, 22, 25, 12, 52, 61, 27, 31, 0)
s = 172: (0, 47, 25, 24, 20, 65, 12, 27, 92, 33, 34, 0)
s = 173: (0, 34, 19, 31, 15, 33, 18, 42, 77, 35, 38, 0)
s = 174: (0, 50, 23, 24, 12, 47, 16, 32, 73, 24, 62, 0)
s = 175: (0, 41, 31, 28, 13, 45, 9, 38, 37, 17, 45, 0)
s = 176: (0, 35, 27, 33, 25, 41, 13, 33, 101, 19, 34, 0)
s = 177: (0, 32, 18, 29, 12, 32, 16, 51, 47, 26, 53, 0)
s = 178: (0, 38, 20, 21, 19, 45, 16, 62, 47, 21, 44, 0)
s = 179: (0, 33, 19, 36, 12, 36, 18, 36, 43, 32, 68, 0)
s = 180: (0, 26, 15, 30, 11, 26, 17, 76, 63, 20, 65, 0)
s = 181: (0, 79, 24, 22, 9, 33, 27, 55, 61, 31, 54, 0)
s = 182: (0, 70, 17, 22, 20, 38, 23, 61, 66, 26, 30, 0)
s = 183: (0, 62, 12, 24, 26, 37, 17, 35, 45, 27, 50, 0)
s = 184: (0, 31, 19, 42, 17, 31, 14, 38, 44, 28, 69, 0)
s = 185: (0, 34, 14, 22, 15, 36, 20, 39, 45, 22, 52, 0)
s = 186: (0, 37, 28, 36, 10, 49, 16, 39, 60, 26, 50, 0)
s = 187: (0, 39, 18, 21, 13, 34, 12, 60, 65, 34, 29, 0)
s = 188: (0, 43, 13, 35, 13, 49, 14, 71, 46, 32, 57, 0)
s = 189: (0, 31, 26, 37, 16, 30, 16, 58, 51, 21, 49, 0)
s = 190: (0, 37, 18, 24, 13, 38, 18, 60, 51, 17, 73, 0)
s = 191: (0, 52, 26, 40, 20, 38, 21, 40, 51, 33, 46, 0)
s = 192: (0, 56, 13, 19, 14, 35, 12, 37, 32, 20, 55, 0)
s = 193: (0, 37, 27, 25, 22, 48, 19, 52, 67, 16, 49, 0)
s = 194: (0, 30, 13, 20, 13, 51, 12, 67, 96, 33, 50, 0)
s = 195: (0, 29, 16, 22, 13, 39, 13, 35, 57, 28, 35, 0)
s = 196: (0, 50, 25, 38, 24, 32, 11, 62, 66, 32, 32, 0)
s = 197: (0, 54, 33, 26, 22, 32, 20, 41, 82, 40, 58, 0)
s = 198: (0, 52, 17, 31, 15, 32, 13, 33, 80, 20, 33, 0)
s = 199: (0, 39, 15, 31, 11, 33, 15, 37, 52, 29, 48, 0)
s = 200: (0, 55, 16, 25, 17, 50, 10, 35, 45, 33, 59, 0)
------------------------------------------------------------------------
RESOURCE k = 2
s = 1: (0, 34, 14, 17, 7, 9, 2, 24, 28, 19, 35, 0)
s = 2: (0, 17, 17, 12, 5, 13, 2, 23, 18, 19, 27, 0)
s = 3: (0, 31, 10, 16, 6, 12, 2, 15, 30, 17, 45, 0)
s = 4: (0, 28, 12, 24, 9, 18, 3, 20, 27, 13, 38, 0)
s = 5: (0, 26, 10, 11, 6, 14, 2, 29, 21, 12, 27, 0)
s = 6: (0, 31, 9, 17, 5, 15, 2, 21, 19, 16, 40, 0)
s = 7: (0, 45, 8, 20, 6, 10, 2, 39, 16, 27, 22, 0)
s = 8: (0, 18, 6, 14, 9, 8, 3, 25, 29, 13, 27, 0)
s = 9: (0, 22, 8, 12, 11, 12, 3, 22, 22, 13, 23, 0)
s = 10: (0, 24, 7, 19, 8, 8, 3, 17, 20, 10, 53, 0)
s = 11: (0, 29, 13, 21, 10, 21, 3, 15, 29, 11, 59, 0)
s = 12: (0, 50, 7, 9, 6, 16, 3, 38, 12, 21, 48, 0)
s = 13: (0, 19, 8, 16, 9, 13, 2, 20, 22, 15, 23, 0)
s = 14: (0, 35, 7, 16, 9, 11, 2, 18, 21, 12, 31, 0)
s = 15: (0, 52, 9, 21, 7, 16, 3, 22, 24, 15, 40, 0)
s = 16: (0, 22, 8, 22, 7, 8, 3, 22, 26, 18, 49, 0)
s = 17: (0, 42, 8, 15, 4, 17, 2, 28, 14, 22, 23, 0)
s = 18: (0, 39, 8, 17, 7, 9, 2, 31, 23, 17, 42, 0)
s = 19: (0, 38, 11, 12, 10, 10, 2, 27, 12, 11, 35, 0)
s = 20: (0, 38, 8, 18, 5, 16, 3, 21, 20, 20, 39, 0)
s = 21: (0, 39, 9, 11, 6, 9, 2, 16, 36, 12, 45, 0)
s = 22: (0, 53, 11, 18, 8, 9, 3, 14, 17, 20, 49, 0)
s = 23: (0, 28, 8, 19, 7, 9, 2, 18, 12, 25, 27, 0)
s = 24: (0, 56, 7, 16, 5, 11, 3, 36, 19, 9, 44, 0)
s = 25: (0, 31, 9, 17, 6, 15, 2, 36, 26, 18, 57, 0)
s = 26: (0, 40, 14, 18, 10, 11, 2, 14, 19, 15, 32, 0)
s = 27: (0, 32, 12, 13, 8, 12, 2, 19, 18, 11, 24, 0)
s = 28: (0, 19, 12, 16, 10, 8, 2, 20, 24, 17, 31, 0)
s = 29: (0, 31, 14, 18, 7, 12, 3, 26, 14, 9, 43, 0)
s = 30: (0, 45, 11, 13, 10, 10, 4, 25, 19, 17, 50, 0)
s = 31: (0, 38, 17, 13, 14, 9, 3, 35, 32, 23, 31, 0)
s = 32: (0, 47, 9, 13, 6, 17, 3, 34, 26, 21, 52, 0)
s = 33: (0, 20, 7, 17, 5, 16, 3, 20, 22, 19, 25, 0)
s = 34: (0, 31, 18, 25, 5, 10, 3, 23, 20, 12, 44, 0)
s = 35: (0, 42, 12, 13, 7, 9, 2, 18, 17, 10, 41, 0)
s = 36: (0, 24, 6, 16, 9, 21, 2, 24, 17, 11, 27, 0)
s = 37: (0, 35, 15, 24, 9, 12, 3, 16, 16, 17, 47, 0)
s = 38: (0, 28, 12, 10, 7, 8, 3, 17, 17, 12, 46, 0)
s = 39: (0, 25, 7, 13, 11, 8, 2, 32, 22, 13, 34, 0)
s = 40: (0, 31, 8, 14, 12, 9, 3, 14, 20, 21, 40, 0)
s = 41: (0, 25, 8, 14, 8, 12, 3, 22, 18, 14, 44, 0)
s = 42: (0, 29, 9, 21, 6, 13, 2, 33, 22, 11, 28, 0)
s = 43: (0, 47, 15, 9, 6, 13, 2, 21, 18, 12, 27, 0)
s = 44: (0, 31, 8, 18, 12, 15, 3, 16, 14, 13, 49, 0)
s = 45: (0, 24, 11, 11, 8, 13, 2, 19, 12, 12, 29, 0)
s = 46: (0, 27, 6, 10, 11, 15, 2, 18, 28, 15, 45, 0)
s = 47: (0, 31, 9, 13, 8, 12, 2, 24, 22, 15, 35, 0)
s = 48: (0, 42, 7, 14, 10, 15, 2, 29, 19, 13, 47, 0)
s = 49: (0, 23, 8, 25, 11, 9, 2, 20, 20, 15, 38, 0)
s = 50: (0, 37, 9, 16, 11, 19, 2, 31, 13, 12, 38, 0)
s = 51: (0, 24, 11, 17, 7, 15, 2, 40, 17, 17, 25, 0)
s = 52: (0, 50, 13, 20, 7, 15, 2, 38, 15, 21, 37, 0)
s = 53: (0, 28, 10, 23, 11, 13, 3, 33, 25, 12, 57, 0)
s = 54: (0, 42, 7, 12, 6, 11, 3, 21, 19, 19, 31, 0)
s = 55: (0, 27, 16, 18, 8, 9, 3, 14, 18, 11, 40, 0)
s = 56: (0, 31, 8, 12, 11, 7, 2, 34, 24, 16, 30, 0)
s = 57: (0, 27, 11, 17, 7, 16, 3, 32, 14, 20, 35, 0)
s = 58: (0, 27, 11, 22, 6, 16, 3, 34, 26, 12, 40, 0)
s = 59: (0, 34, 12, 19, 7, 15, 3, 34, 19, 16, 49, 0)
s = 60: (0, 27, 8, 30, 6, 12, 3, 19, 17, 13, 30, 0)
s = 61: (0, 29, 11, 16, 5, 8, 3, 38, 17, 13, 46, 0)
s = 62: (0, 46, 11, 17, 9, 10, 3, 19, 19, 15, 40, 0)
s = 63: (0, 55, 11, 10, 6, 12, 2, 21, 15, 11, 24, 0)
s = 64: (0, 44, 8, 19, 6, 14, 3, 15, 27, 11, 34, 0)
s = 65: (0, 33, 8, 17, 7, 8, 2, 25, 18, 12, 25, 0)
s = 66: (0, 22, 6, 19, 6, 11, 3, 32, 17, 13, 44, 0)
s = 67: (0, 26, 9, 17, 9, 15, 3, 19, 19, 17, 53, 0)
s = 68: (0, 37, 12, 19, 9, 20, 2, 30, 26, 15, 24, 0)
s = 69: (0, 22, 15, 13, 6, 12, 2, 30, 24, 26, 39, 0)
s = 70: (0, 23, 10, 14, 9, 8, 2, 43, 17, 24, 30, 0)
s = 71: (0, 41, 11, 22, 6, 18, 3, 28, 17, 25, 30, 0)
s = 72: (0, 23, 10, 22, 7, 9, 2, 38, 17, 16, 43, 0)
s = 73: (0, 40, 15, 18, 8, 22, 3, 20, 19, 15, 32, 0)
s = 74: (0, 36, 11, 14, 9, 15, 2, 18, 32, 16, 34, 0)
s = 75: (0, 23, 11, 15, 5, 17, 2, 14, 24, 17, 30, 0)
s = 76: (0, 45, 9, 15, 12, 9, 2, 13, 15, 17, 28, 0)
s = 77: (0, 36, 12, 12, 10, 12, 3, 26, 14, 14, 50, 0)
s = 78: (0, 33, 12, 11, 8, 13, 2, 20, 19, 18, 40, 0)
s = 79: (0, 33, 9, 18, 7, 12, 3, 25, 32, 19, 54, 0)
s = 80: (0, 49, 12, 11, 11, 16, 4, 38, 15, 10, 42, 0)
s = 81: (0, 36, 9, 15, 6, 15, 3, 22, 24, 26, 34, 0)
s = 82: (0, 45, 10, 22, 9, 9, 3, 22, 23, 12, 40, 0)
s = 83: (0, 18, 16, 15, 6, 15, 3, 30, 32, 20, 32, 0)
s = 84: (0, 26, 12, 17, 9, 16, 2, 28, 21, 16, 41, 0)
s = 85: (0, 39, 13, 15, 8, 11, 3, 22, 12, 17, 52, 0)
s = 86: (0, 39, 10, 15, 5, 14, 3, 26, 21, 22, 32, 0)
s = 87: (0, 27, 12, 15, 7, 12, 3, 24, 25, 14, 53, 0)
s = 88: (0, 20, 6, 18, 8, 12, 2, 21, 14, 29, 34, 0)
s = 89: (0, 32, 7, 16, 8, 9, 2, 30, 23, 14, 25, 0)
s = 90: (0, 31, 12, 14, 7, 13, 3, 43, 33, 15, 52, 0)
s = 91: (0, 24, 7, 14, 5, 12, 2, 15, 13, 17, 39, 0)
s = 92: (0, 28, 11, 13, 10, 15, 2, 16, 21, 18, 40, 0)
s = 93: (0, 27, 7, 23, 6, 13, 2, 22, 27, 10, 38, 0)
s = 94: (0, 19, 19, 22, 5, 15, 3, 20, 34, 12, 39, 0)
s = 95: (0, 30, 11, 16, 7, 14, 2, 33, 32, 26, 28, 0)
s = 96: (0, 26, 14, 15, 7, 9, 2, 23, 22, 16, 52, 0)
s = 97: (0, 37, 6, 18, 11, 11, 3, 16, 16, 18, 37, 0)
s = 98: (0, 28, 12, 12, 7, 12, 3, 34, 27, 19, 24, 0)
s = 99: (0, 27, 7, 10, 9, 17, 2, 24, 22, 15, 28, 0)
s = 100: (0, 27, 10, 18, 7, 15, 2, 36, 21, 15, 25, 0)
s = 101: (0, 40, 8, 22, 8, 12, 3, 19, 16, 23, 56, 0)
s = 102: (0, 29, 8, 15, 9, 16, 3, 38, 14, 12, 40, 0)
s = 103: (0, 25, 8, 19, 8, 11, 2, 27, 14, 14, 24, 0)
s = 104: (0, 31, 12, 16, 9, 8, 3, 37, 26, 11, 29, 0)
s = 105: (0, 28, 7, 9, 8, 12, 3, 19, 19, 13, 62, 0)
s = 106: (0, 30, 12, 20, 5, 22, 2, 27, 19, 19, 50, 0)
s = 107: (0, 21, 7, 20, 8, 9, 3, 19, 27, 11, 30, 0)
s = 108: (0, 31, 8, 11, 6, 18, 2, 27, 34, 15, 28, 0)
s = 109: (0, 40, 8, 12, 7, 12, 2, 18, 28, 16, 37, 0)
s = 110: (0, 31, 11, 12, 5, 13, 2, 19, 12, 23, 39, 0)
s = 111: (0, 26, 11, 21, 7, 7, 4, 22, 20, 20, 32, 0)
s = 112: (0, 34, 12, 21, 5, 8, 3, 18, 25, 14, 25, 0)
s = 113: (0, 31, 14, 12, 6, 11, 3, 33, 19, 14, 52, 0)
s = 114: (0, 23, 14, 19, 7, 12, 2, 32, 19, 13, 32, 0)
s = 115: (0, 30, 13, 11, 8, 15, 3, 20, 15, 13, 32, 0)
s = 116: (0, 27, 9, 16, 5, 9, 3, 25, 25, 12, 23, 0)
s = 117: (0, 27, 11, 22, 6, 12, 2, 24, 20, 16, 54, 0)
s = 118: (0, 23, 12, 10, 8, 12, 2, 32, 29, 17, 52, 0)
s = 119: (0, 33, 10, 13, 13, 9, 3, 39, 19, 10, 35, 0)
s = 120: (0, 43, 9, 18, 6, 17, 2, 17, 17, 17, 27, 0)
s = 121: (0, 30, 9, 25, 6, 13, 3, 16, 19, 20, 27, 0)
s = 122: (0, 46, 7, 16, 8, 9, 3, 27, 36, 28, 27, 0)
s = 123: (0, 37, 7, 21, 11, 14, 2, 30, 15, 13, 62, 0)
s = 124: (0, 26, 9, 16, 10, 20, 2, 27, 19, 15, 40, 0)
s = 125: (0, 26, 14, 26, 4, 12, 3, 28, 14, 18, 75, 0)
s = 126: (0, 34, 9, 11, 8, 11, 3, 22, 24, 16, 26, 0)
s = 127: (0, 42, 10, 23, 8, 12, 3, 31, 21, 11, 34, 0)
s = 128: (0, 32, 13, 14, 5, 8, 2, 19, 20, 14, 46, 0)
s = 129: (0, 45, 6, 13, 6, 10, 3, 22, 19, 14, 38, 0)
s = 130: (0, 33, 11, 22, 5, 11, 3, 29, 23, 21, 38, 0)
s = 131: (0, 27, 11, 21, 7, 12, 3, 29, 26, 13, 41, 0)
s = 132: (0, 23, 12, 19, 5, 8, 3, 34, 12, 12, 38, 0)
s = 133: (0, 31, 8, 11, 5, 16, 3, 18, 18, 13, 55, 0)
s = 134: (0, 26, 8, 22, 9, 11, 3, 26, 13, 11, 74, 0)
s = 135: (0, 55, 9, 13, 4, 9, 2, 21, 29, 18, 27, 0)
s = 136: (0, 27, 11, 17, 5, 12, 3, 35, 23, 16, 40, 0)
s = 137: (0, 29, 11, 11, 7, 11, 3, 25, 18, 17, 38, 0)
s = 138: (0, 41, 10, 19, 7, 11, 2, 21, 14, 10, 38, 0)
s = 139: (0, 34, 7, 12, 10, 10, 2, 17, 23, 14, 39, 0)
s = 140: (0, 40, 9, 13, 8, 16, 2, 25, 15, 13, 33, 0)
s = 141: (0, 36, 7, 22, 10, 11, 2, 23, 30, 15, 36, 0)
s = 142: (0, 30, 10, 16, 5, 11, 3, 38, 25, 13, 42, 0)
s = 143: (0, 51, 6, 14, 8, 15, 3, 37, 20, 12, 50, 0)
s = 144: (0, 40, 7, 19, 7, 17, 3, 16, 25, 23, 28, 0)
s = 145: (0, 42, 15, 14, 9, 9, 2, 24, 15, 24, 27, 0)
s = 146: (0, 18, 13, 15, 6, 10, 3, 24, 21, 17, 29, 0)
s = 147: (0, 29, 12, 19, 7, 12, 3, 17, 12, 15, 26, 0)
s = 148: (0, 33, 8, 18, 10, 9, 3, 34, 18, 27, 34, 0)
s = 149: (0, 45, 9, 20, 8, 20, 2, 32, 19, 18, 47, 0)
s = 150: (0, 26, 15, 19, 5, 9, 3, 27, 21, 17, 36, 0)
s = 151: (0, 37, 8, 17, 6, 10, 2, 30, 29, 11, 25, 0)
s = 152: (0, 24, 14, 18, 5, 11, 2, 26, 29, 13, 37, 0)
s = 153: (0, 25, 16, 18, 6, 8, 2, 24, 24, 12, 28, 0)
s = 154: (0, 33, 15, 12, 6, 12, 3, 17, 18, 24, 38, 0)
s = 155: (0, 19, 10, 12, 10, 12, 2, 32, 15, 14, 72, 0)
s = 156: (0, 34, 12, 21, 10, 14, 3, 19, 12, 13, 40, 0)
s = 157: (0, 39, 10, 24, 6, 14, 2, 30, 19, 12, 31, 0)
s = 158: (0, 30, 11, 11, 11, 12, 3, 15, 16, 11, 37, 0)
s = 159: (0, 40, 8, 14, 12, 11, 2, 25, 16, 18, 47, 0)
s = 160: (0, 25, 13, 13, 6, 15, 2, 15, 19, 15, 43, 0)
s = 161: (0, 24, 14, 13, 6, 10, 3, 22, 25, 20, 44, 0)
s = 162: (0, 28, 14, 15, 9, 14, 3, 22, 15, 19, 33, 0)
s = 163: (0, 36, 17, 13, 9, 11, 4, 40, 27, 14, 28, 0)
s = 164: (0, 33, 11, 15, 9, 17, 2, 28, 27, 10, 43, 0)
s = 165: (0, 30, 14, 11, 5, 11, 3, 30, 23, 21, 29, 0)
s = 166: (0, 20, 9, 23, 6, 12, 3, 18, 22, 20, 38, 0)
s = 167: (0, 45, 9, 12, 7, 11, 3, 19, 21, 13, 52, 0)
s = 168: (0, 25, 12, 10, 5, 12, 2, 28, 15, 14, 53, 0)
s = 169: (0, 42, 13, 21, 4, 9, 2, 35, 17, 10, 42, 0)
s = 170: (0, 26, 7, 10, 6, 10, 3, 42, 30, 25, 28, 0)
s = 171: (0, 31, 17, 18, 10, 8, 2, 26, 21, 16, 24, 0)
s = 172: (0, 34, 13, 14, 10, 20, 2, 14, 31, 19, 26, 0)
s = 173: (0, 25, 10, 18, 7, 11, 3, 21, 26, 20, 29, 0)
s = 174: (0, 36, 12, 14, 6, 15, 3, 16, 25, 14, 48, 0)
s = 175: (0, 30, 16, 16, 6, 14, 2, 19, 13, 10, 35, 0)
s = 176: (0, 26, 14, 19, 12, 13, 2, 17, 34, 11, 26, 0)
s = 177: (0, 23, 9, 17, 6, 10, 3, 26, 16, 15, 41, 0)
s = 178: (0, 28, 10, 12, 9, 14, 3, 31, 16, 12, 34, 0)
s = 179: (0, 24, 10, 21, 6, 12, 3, 18, 15, 18, 52, 0)
s = 180: (0, 19, 8, 17, 6, 8, 3, 38, 21, 12, 50, 0)
s = 181: (0, 57, 12, 13, 5, 10, 4, 28, 21, 18, 42, 0)
s = 182: (0, 51, 9, 13, 10, 12, 3, 31, 22, 15, 23, 0)
s = 183: (0, 45, 6, 14, 13, 12, 3, 18, 15, 15, 39, 0)
s = 184: (0, 23, 10, 24, 8, 10, 2, 19, 15, 16, 54, 0)
s = 185: (0, 25, 7, 13, 7, 11, 3, 20, 15, 13, 40, 0)
s = 186: (0, 27, 14, 21, 5, 16, 3, 20, 20, 15, 38, 0)
s = 187: (0, 29, 9, 12, 6, 11, 2, 30, 22, 20, 22, 0)
s = 188: (0, 31, 7, 20, 6, 16, 2, 36, 16, 19, 44, 0)
s = 189: (0, 23, 13, 21, 8, 10, 3, 29, 17, 12, 38, 0)
s = 190: (0, 27, 9, 14, 6, 12, 3, 30, 17, 10, 56, 0)
s = 191: (0, 38, 13, 23, 10, 12, 3, 20, 17, 19, 35, 0)
s = 192: (0, 41, 7, 11, 7, 11, 2, 19, 11, 12, 43, 0)
s = 193: (0, 27, 14, 15, 10, 15, 3, 26, 23, 9, 38, 0)
s = 194: (0, 22, 7, 12, 6, 16, 2, 34, 32, 19, 39, 0)
s = 195: (0, 21, 8, 13, 6, 12, 2, 18, 19, 16, 27, 0)
s = 196: (0, 37, 13, 22, 11, 10, 2, 31, 22, 18, 25, 0)
s = 197: (0, 39, 17, 15, 11, 10, 3, 21, 28, 23, 45, 0)
s = 198: (0, 38, 9, 18, 7, 10, 2, 17, 27, 12, 26, 0)
s = 199: (0, 28, 8, 18, 5, 11, 2, 19, 18, 17, 37, 0)
s = 200: (0, 40, 8, 14, 8, 16, 2, 18, 15, 19, 46, 0)
------------------------------------------------------------------------
RESOURCE k = 3
s = 1: (0, 25, 24, 11, 6, 13, 3, 36, 56, 21, 14, 0)
s = 2: (0, 13, 30, 8, 4, 20, 4, 35, 35, 21, 11, 0)
s = 3: (0, 23, 18, 10, 5, 18, 4, 22, 59, 19, 18, 0)
s = 4: (0, 21, 22, 15, 7, 27, 6, 29, 54, 15, 16, 0)
s = 5: (0, 19, 17, 7, 5, 21, 4, 43, 41, 13, 11, 0)
s = 6: (0, 24, 17, 11, 4, 22, 3, 31, 38, 18, 16, 0)
s = 7: (0, 34, 13, 13, 5, 15, 4, 58, 31, 30, 9, 0)
s = 8: (0, 14, 10, 9, 8, 11, 6, 37, 57, 15, 11, 0)
s = 9: (0, 17, 15, 8, 9, 18, 5, 33, 44, 14, 10, 0)
s = 10: (0, 18, 11, 12, 7, 12, 5, 25, 39, 11, 21, 0)
s = 11: (0, 22, 22, 13, 9, 31, 5, 23, 57, 12, 24, 0)
s = 12: (0, 38, 12, 6, 5, 24, 5, 56, 24, 23, 20, 0)
s = 13: (0, 14, 14, 10, 8, 19, 4, 29, 44, 17, 10, 0)
s = 14: (0, 27, 13, 10, 8, 16, 4, 27, 41, 13, 13, 0)
s = 15: (0, 39, 15, 13, 6, 23, 5, 32, 48, 17, 16, 0)
s = 16: (0, 17, 14, 14, 6, 12, 5, 33, 52, 20, 20, 0)
s = 17: (0, 31, 14, 10, 4, 25, 4, 42, 28, 24, 9, 0)
s = 18: (0, 29, 13, 11, 6, 13, 4, 47, 46, 19, 17, 0)
s = 19: (0, 29, 20, 8, 9, 15, 4, 40, 24, 12, 14, 0)
s = 20: (0, 28, 14, 12, 5, 24, 5, 31, 39, 22, 16, 0)
s = 21: (0, 30, 16, 7, 5, 13, 4, 24, 72, 14, 18, 0)
s = 22: (0, 40, 20, 12, 7, 13, 5, 21, 33, 22, 20, 0)
s = 23: (0, 21, 13, 12, 6, 13, 4, 27, 23, 28, 11, 0)
s = 24: (0, 42, 13, 10, 5, 17, 5, 54, 37, 10, 18, 0)
s = 25: (0, 23, 15, 11, 6, 22, 3, 54, 52, 21, 23, 0)
s = 26: (0, 30, 24, 12, 8, 16, 4, 21, 38, 17, 13, 0)
s = 27: (0, 24, 21, 8, 7, 18, 3, 29, 35, 12, 10, 0)
s = 28: (0, 15, 21, 10, 9, 12, 4, 30, 48, 20, 13, 0)
s = 29: (0, 23, 25, 11, 6, 18, 5, 39, 28, 10, 18, 0)
s = 30: (0, 34, 20, 8, 9, 14, 8, 37, 37, 19, 20, 0)
s = 31: (0, 29, 31, 9, 12, 13, 6, 52, 64, 26, 13, 0)
s = 32: (0, 36, 15, 8, 5, 25, 6, 50, 52, 24, 21, 0)
s = 33: (0, 15, 13, 11, 5, 24, 5, 30, 43, 21, 10, 0)
s = 34: (0, 24, 33, 16, 4, 15, 5, 34, 40, 14, 18, 0)
s = 35: (0, 32, 21, 8, 6, 14, 3, 27, 34, 12, 17, 0)
s = 36: (0, 18, 11, 10, 8, 32, 4, 36, 33, 13, 11, 0)
s = 37: (0, 26, 27, 15, 8, 18, 5, 23, 32, 19, 19, 0)
s = 38: (0, 21, 20, 7, 6, 12, 5, 25, 34, 13, 19, 0)
s = 39: (0, 19, 12, 9, 9, 12, 3, 47, 44, 15, 14, 0)
s = 40: (0, 23, 14, 9, 11, 13, 5, 21, 39, 23, 16, 0)
s = 41: (0, 19, 13, 9, 7, 18, 6, 33, 35, 16, 18, 0)
s = 42: (0, 22, 16, 14, 5, 19, 3, 49, 44, 13, 11, 0)
s = 43: (0, 36, 26, 6, 5, 19, 4, 32, 35, 14, 11, 0)
s = 44: (0, 23, 14, 11, 10, 23, 6, 24, 28, 14, 20, 0)
s = 45: (0, 18, 19, 7, 7, 20, 4, 29, 24, 13, 12, 0)
s = 46: (0, 20, 11, 7, 9, 23, 3, 27, 55, 17, 18, 0)
s = 47: (0, 23, 15, 8, 7, 17, 4, 36, 44, 17, 14, 0)
s = 48: (0, 32, 13, 9, 8, 23, 4, 43, 37, 14, 19, 0)
s = 49: (0, 17, 14, 16, 10, 14, 4, 30, 39, 17, 15, 0)
s = 50: (0, 28, 16, 10, 9, 28, 4, 46, 25, 13, 15, 0)
s = 51: (0, 18, 19, 11, 6, 22, 4, 60, 33, 19, 10, 0)
s = 52: (0, 38, 24, 13, 6, 22, 3, 57, 29, 23, 15, 0)
s = 53: (0, 21, 17, 15, 10, 19, 6, 50, 50, 13, 23, 0)
s = 54: (0, 32, 12, 8, 5, 17, 6, 32, 38, 21, 13, 0)
s = 55: (0, 20, 28, 11, 7, 14, 5, 21, 36, 12, 16, 0)
s = 56: (0, 23, 13, 8, 9, 11, 4, 50, 47, 18, 12, 0)
s = 57: (0, 21, 20, 11, 6, 24, 6, 48, 27, 23, 14, 0)
s = 58: (0, 21, 20, 14, 5, 24, 5, 51, 51, 14, 16, 0)
s = 59: (0, 26, 22, 12, 6, 22, 5, 50, 38, 18, 20, 0)
s = 60: (0, 21, 15, 19, 5, 17, 6, 29, 34, 15, 12, 0)
s = 61: (0, 22, 19, 10, 4, 12, 6, 56, 34, 14, 19, 0)
s = 62: (0, 35, 20, 11, 8, 15, 5, 29, 37, 17, 16, 0)
s = 63: (0, 41, 19, 7, 6, 18, 4, 32, 30, 12, 10, 0)
s = 64: (0, 33, 14, 12, 5, 21, 5, 22, 53, 13, 14, 0)
s = 65: (0, 25, 14, 11, 6, 12, 3, 37, 35, 13, 10, 0)
s = 66: (0, 17, 10, 12, 5, 17, 5, 47, 33, 15, 18, 0)
s = 67: (0, 20, 16, 11, 8, 22, 5, 28, 38, 19, 21, 0)
s = 68: (0, 28, 21, 12, 8, 30, 4, 45, 52, 17, 10, 0)
s = 69: (0, 16, 26, 8, 5, 18, 4, 45, 48, 29, 16, 0)
s = 70: (0, 18, 18, 9, 7, 12, 3, 64, 33, 27, 12, 0)
s = 71: (0, 31, 19, 14, 5, 26, 5, 42, 33, 28, 12, 0)
s = 72: (0, 18, 18, 14, 6, 13, 4, 56, 34, 18, 17, 0)
s = 73: (0, 30, 26, 11, 7, 33, 6, 30, 38, 17, 13, 0)
s = 74: (0, 27, 19, 9, 7, 22, 3, 27, 63, 18, 14, 0)
s = 75: (0, 18, 20, 10, 5, 26, 4, 21, 47, 19, 12, 0)
s = 76: (0, 34, 17, 10, 10, 14, 4, 19, 29, 19, 12, 0)
s = 77: (0, 27, 22, 8, 8, 17, 5, 39, 27, 15, 20, 0)
s = 78: (0, 25, 21, 7, 7, 19, 4, 30, 37, 21, 16, 0)
s = 79: (0, 25, 16, 11, 6, 17, 6, 37, 63, 21, 22, 0)
s = 80: (0, 37, 20, 7, 9, 24, 7, 56, 29, 12, 17, 0)
s = 81: (0, 27, 16, 9, 5, 23, 6, 32, 47, 29, 14, 0)
s = 82: (0, 34, 17, 14, 8, 13, 5, 33, 45, 13, 16, 0)
s = 83: (0, 13, 28, 9, 5, 23, 5, 45, 64, 23, 13, 0)
s = 84: (0, 19, 21, 11, 8, 24, 4, 42, 41, 18, 17, 0)
s = 85: (0, 29, 24, 9, 7, 17, 5, 32, 24, 19, 21, 0)
s = 86: (0, 30, 17, 9, 4, 21, 6, 38, 41, 25, 13, 0)
s = 87: (0, 20, 21, 10, 6, 18, 5, 35, 50, 16, 21, 0)
s = 88: (0, 15, 11, 11, 7, 18, 4, 31, 28, 33, 14, 0)
s = 89: (0, 24, 12, 10, 7, 14, 4, 45, 45, 16, 10, 0)
s = 90: (0, 23, 21, 9, 6, 19, 5, 64, 65, 17, 21, 0)
s = 91: (0, 18, 13, 9, 5, 17, 4, 22, 25, 19, 16, 0)
s = 92: (0, 21, 19, 8, 9, 23, 3, 24, 42, 20, 16, 0)
s = 93: (0, 21, 13, 14, 5, 19, 4, 32, 53, 11, 15, 0)
s = 94: (0, 14, 34, 14, 4, 22, 5, 30, 68, 14, 16, 0)
s = 95: (0, 23, 20, 10, 6, 20, 3, 50, 63, 29, 12, 0)
s = 96: (0, 20, 25, 10, 6, 13, 4, 34, 44, 18, 21, 0)
s = 97: (0, 28, 10, 11, 10, 16, 5, 24, 32, 20, 15, 0)
s = 98: (0, 21, 21, 8, 6, 17, 5, 50, 53, 21, 10, 0)
s = 99: (0, 21, 12, 6, 8, 25, 3, 36, 44, 17, 12, 0)
s = 100: (0, 21, 17, 12, 6, 22, 3, 53, 41, 17, 10, 0)
s = 101: (0, 30, 15, 14, 7, 17, 6, 28, 31, 26, 23, 0)
s = 102: (0, 22, 14, 10, 8, 23, 6, 57, 28, 14, 16, 0)
s = 103: (0, 19, 14, 12, 7, 16, 4, 41, 28, 16, 10, 0)
s = 104: (0, 23, 21, 10, 8, 11, 5, 55, 52, 12, 12, 0)
s = 105: (0, 21, 13, 6, 7, 17, 6, 28, 38, 15, 25, 0)
s = 106: (0, 23, 20, 13, 4, 33, 4, 40, 38, 21, 20, 0)
s = 107: (0, 16, 12, 12, 7, 13, 5, 29, 54, 12, 12, 0)
s = 108: (0, 23, 14, 7, 5, 27, 4, 40, 67, 17, 11, 0)
s = 109: (0, 30, 15, 8, 6, 18, 4, 27, 55, 18, 15, 0)
s = 110: (0, 24, 20, 8, 5, 19, 3, 29, 24, 26, 16, 0)
s = 111: (0, 20, 19, 13, 6, 10, 7, 32, 39, 23, 13, 0)
s = 112: (0, 25, 21, 13, 4, 12, 5, 26, 49, 15, 10, 0)
s = 113: (0, 23, 26, 8, 5, 17, 6, 50, 38, 15, 21, 0)
s = 114: (0, 18, 25, 12, 6, 17, 4, 47, 38, 14, 13, 0)
s = 115: (0, 23, 22, 7, 7, 23, 5, 29, 30, 15, 13, 0)
s = 116: (0, 20, 17, 10, 4, 13, 6, 38, 50, 13, 10, 0)
s = 117: (0, 20, 19, 14, 5, 18, 3, 35, 39, 17, 22, 0)
s = 118: (0, 17, 21, 7, 7, 18, 4, 48, 57, 19, 21, 0)
s = 119: (0, 25, 18, 8, 11, 14, 6, 59, 38, 12, 14, 0)
s = 120: (0, 32, 16, 11, 5, 26, 4, 26, 34, 19, 11, 0)
s = 121: (0, 22, 15, 16, 5, 20, 5, 24, 37, 23, 11, 0)
s = 122: (0, 35, 13, 10, 7, 13, 5, 40, 71, 32, 11, 0)
s = 123: (0, 28, 12, 13, 9, 21, 4, 45, 29, 14, 25, 0)
s = 124: (0, 20, 17, 10, 8, 30, 3, 40, 37, 17, 16, 0)
s = 125: (0, 20, 25, 16, 4, 18, 5, 42, 28, 20, 30, 0)
s = 126: (0, 26, 16, 7, 7, 16, 5, 33, 48, 18, 11, 0)
s = 127: (0, 32, 18, 14, 7, 18, 5, 46, 41, 13, 14, 0)
s = 128: (0, 24, 23, 9, 5, 12, 3, 28, 39, 15, 19, 0)
s = 129: (0, 34, 10, 9, 5, 15, 6, 33, 37, 15, 16, 0)
s = 130: (0, 25, 19, 14, 4, 16, 5, 44, 46, 24, 16, 0)
s = 131: (0, 20, 20, 14, 6, 18, 5, 43, 52, 14, 17, 0)
s = 132: (0, 18, 22, 12, 4, 12, 6, 51, 24, 14, 16, 0)
s = 133: (0, 24, 14, 7, 5, 24, 5, 27, 36, 14, 22, 0)
s = 134: (0, 20, 13, 14, 8, 16, 5, 38, 25, 12, 30, 0)
s = 135: (0, 41, 15, 8, 4, 13, 4, 31, 57, 20, 11, 0)
s = 136: (0, 21, 19, 11, 5, 18, 5, 52, 46, 18, 16, 0)
s = 137: (0, 22, 20, 7, 6, 17, 6, 37, 36, 19, 15, 0)
s = 138: (0, 31, 17, 12, 6, 16, 4, 31, 27, 12, 16, 0)
s = 139: (0, 26, 11, 8, 8, 15, 3, 25, 45, 15, 16, 0)
s = 140: (0, 30, 17, 8, 7, 24, 3, 37, 30, 15, 13, 0)
s = 141: (0, 27, 12, 14, 8, 17, 4, 35, 59, 17, 15, 0)
s = 142: (0, 23, 18, 10, 4, 16, 5, 57, 49, 15, 17, 0)
s = 143: (0, 38, 11, 9, 7, 23, 6, 55, 40, 13, 20, 0)
s = 144: (0, 30, 12, 12, 6, 25, 5, 23, 49, 26, 11, 0)
s = 145: (0, 31, 27, 9, 8, 13, 4, 36, 30, 27, 11, 0)
s = 146: (0, 14, 23, 10, 5, 14, 6, 35, 41, 19, 12, 0)
s = 147: (0, 22, 20, 12, 6, 18, 5, 25, 24, 17, 11, 0)
s = 148: (0, 25, 13, 11, 9, 13, 6, 50, 35, 30, 14, 0)
s = 149: (0, 34, 16, 13, 7, 29, 4, 48, 38, 20, 19, 0)
s = 150: (0, 20, 27, 12, 5, 14, 5, 41, 41, 19, 15, 0)
s = 151: (0, 28, 14, 11, 5, 15, 3, 45, 57, 12, 10, 0)
s = 152: (0, 18, 26, 11, 5, 16, 4, 39, 58, 14, 15, 0)
s = 153: (0, 19, 28, 12, 5, 12, 4, 36, 47, 14, 11, 0)
s = 154: (0, 25, 27, 7, 5, 18, 5, 25, 35, 27, 15, 0)
s = 155: (0, 15, 18, 8, 9, 18, 4, 48, 29, 16, 29, 0)
s = 156: (0, 26, 22, 14, 9, 20, 6, 28, 23, 15, 16, 0)
s = 157: (0, 29, 18, 15, 5, 21, 3, 45, 38, 14, 13, 0)
s = 158: (0, 23, 19, 7, 9, 18, 6, 22, 31, 12, 15, 0)
s = 159: (0, 30, 14, 9, 11, 16, 4, 38, 32, 20, 19, 0)
s = 160: (0, 19, 23, 8, 5, 22, 4, 22, 37, 17, 18, 0)
s = 161: (0, 18, 24, 9, 5, 15, 5, 33, 49, 22, 18, 0)
s = 162: (0, 21, 25, 10, 8, 21, 5, 32, 30, 22, 13, 0)
s = 163: (0, 27, 30, 8, 8, 16, 8, 59, 53, 15, 11, 0)
s = 164: (0, 25, 20, 9, 8, 25, 3, 41, 54, 11, 17, 0)
s = 165: (0, 23, 24, 7, 4, 16, 5, 45, 46, 24, 12, 0)
s = 166: (0, 15, 17, 14, 5, 17, 6, 27, 43, 22, 16, 0)
s = 167: (0, 34, 16, 8, 6, 16, 5, 28, 42, 15, 21, 0)
s = 168: (0, 19, 22, 6, 4, 18, 4, 42, 29, 15, 21, 0)
s = 169: (0, 32, 23, 13, 4, 13, 4, 52, 33, 11, 17, 0)
s = 170: (0, 20, 13, 7, 6, 15, 5, 62, 60, 29, 11, 0)
s = 171: (0, 23, 31, 11, 9, 12, 3, 39, 41, 18, 10, 0)
s = 172: (0, 26, 23, 9, 8, 30, 3, 21, 61, 21, 11, 0)
s = 173: (0, 19, 17, 11, 6, 16, 5, 32, 52, 23, 12, 0)
s = 174: (0, 27, 20, 9, 5, 22, 5, 24, 49, 15, 19, 0)
s = 175: (0, 23, 28, 10, 5, 21, 3, 29, 25, 11, 14, 0)
s = 176: (0, 19, 24, 12, 10, 19, 4, 25, 68, 13, 11, 0)
s = 177: (0, 18, 16, 11, 5, 15, 5, 38, 32, 17, 17, 0)
s = 178: (0, 21, 18, 8, 8, 21, 5, 47, 32, 14, 14, 0)
s = 179: (0, 18, 18, 13, 5, 17, 5, 27, 29, 21, 21, 0)
s = 180: (0, 15, 13, 11, 5, 12, 5, 57, 42, 13, 20, 0)
s = 181: (0, 43, 22, 8, 4, 15, 8, 41, 41, 20, 17, 0)
s = 182: (0, 38, 16, 8, 8, 18, 6, 46, 44, 17, 10, 0)
s = 183: (0, 34, 11, 9, 11, 17, 5, 26, 30, 17, 16, 0)
s = 184: (0, 17, 18, 15, 7, 14, 4, 29, 30, 18, 22, 0)
s = 185: (0, 19, 13, 8, 6, 17, 6, 30, 30, 14, 16, 0)
s = 186: (0, 20, 25, 13, 4, 23, 5, 30, 40, 17, 16, 0)
s = 187: (0, 22, 16, 8, 5, 16, 3, 45, 43, 22, 9, 0)
s = 188: (0, 24, 12, 13, 5, 23, 4, 53, 31, 21, 18, 0)
s = 189: (0, 17, 24, 13, 7, 14, 5, 44, 34, 14, 15, 0)
s = 190: (0, 21, 16, 9, 5, 18, 5, 45, 34, 11, 23, 0)
s = 191: (0, 28, 24, 15, 8, 18, 6, 30, 34, 21, 14, 0)
s = 192: (0, 31, 11, 7, 6, 17, 4, 28, 22, 13, 17, 0)
s = 193: (0, 21, 25, 9, 9, 22, 5, 39, 45, 11, 16, 0)
s = 194: (0, 17, 12, 8, 5, 24, 3, 50, 64, 22, 16, 0)
s = 195: (0, 16, 14, 8, 5, 18, 4, 26, 38, 18, 11, 0)
s = 196: (0, 28, 22, 14, 10, 15, 3, 47, 44, 21, 10, 0)
s = 197: (0, 30, 29, 10, 9, 15, 6, 31, 55, 26, 18, 0)
s = 198: (0, 28, 16, 11, 6, 15, 4, 25, 54, 13, 11, 0)
s = 199: (0, 21, 13, 11, 5, 16, 4, 28, 35, 19, 15, 0)
s = 200: (0, 30, 14, 9, 7, 24, 3, 27, 30, 21, 19, 0)
************************************************************************
ES/LS-VALUES:
jobnr.   ES(i)    LS(i)
------------------------------------------------------------------------
  0        0        0
  1        0       57
  2        0       49
  3        0       51
  4        3       53
  5        3       64
  6        5       55
  7        7       57
  8       14       65
  9        8       70
 10        7       66
 11       23       74
************************************************************************
BIG-M-VALUES:
M1 = 54, M2 = 225
************************************************************************
